\ENCODING=ISO-8859-1
\Problem name: 配置 2-1

Minimize
 obj: - 0.142857142857143 sold_next(1) - 0.0109289617486339 sold_next(2)
      - 0.0130718954248366 sold_next(3) - 0.00421940928270042 sold_next(4)
      - 0.025 sold_next(5) - 0.000425985090521832 sold_next(6)
      - 0.00383141762452107 sold_next(7) - 0.00336700336700337 sold_next(8)
      - 0.000249438762783737 sold_next(9) - 0.00280112044817927 sold_next(10)
      - 0.00289435600578871 sold_next(11) - 0.000710479573712256 sold_next(12)
      - 0.00100959111559818 sold_next(13) - 0.00847457627118644 sold_next(14)
      - 0.00022670596236681 sold_next(15) - 0.000219394471259324 sold_next(16)
      - 0.000152322924600152 sold_next(17) - 0.005249343832021 sold_next(18)
      - 0.000304228780042592 sold_next(19) - 0.0625 sold_next(20)
      - 0.0588235294117647 sold_next(21) - 0.111111111111111 sold_next(22)
      - 0.0132450331125828 sold_next(23) - 0.000208899101733863 sold_next(24)
      - 0.0000218385909741103 sold_next(25) - 0.00264550264550265 sold_next(26)
      - 0.000178842886524188 sold_next(27)
      - 0.0000326573266712387 sold_next(28)
      - 0.0000436614491234964 sold_next(29) - 0.0000483278561763 sold_next(30)
      - 0.000705218617771509 sold_next(31)
      - 0.0000699447436525145 sold_next(32)
      - 0.000276701715550636 sold_next(33)
      - 0.0000425405198451525 sold_next(34)
      - 0.000135437123315501 sold_next(35) - 0.00022583559168925 sold_next(36)
      - 0.000258297817383443 sold_next(37) - 0.0043956043956044 sold_next(38)
      - 0.018018018018018 sold_next(39) - 0.00116346713205352 sold_next(40)
      - 0.00101214574898785 sold_next(41) - 0.00106382978723404 sold_next(42)
      - 0.0000500964356386043 sold_next(43) - 0.0034965034965035 sold_next(44)
      - 0.00323101777059774 sold_next(45) - 0.00148148148148148 sold_next(46)
      - 0.025974025974026 sold_next(47) - 0.000559440559440559 sold_next(48)
      - 0.00155884645362432 sold_next(49) - 0.000203956761166633 sold_next(50)
      - 0.025974025974026 sold_next(51) - 0.000487329434697856 sold_next(52)
      - 0.000935891436593355 sold_next(53) - 0.00119331742243437 sold_next(54)
      - 0.0512820512820513 sold_next(55) - 0.0148148148148148 sold_next(56)
      - 0.0224719101123595 sold_next(57) - 0.0303030303030303 sold_next(58)
      - 0.000705965407695023 sold_next(59) - 0.00113571834185122 sold_next(60)
      - 0.000752445447705041 sold_next(61) - 0.00329489291598023 sold_next(62)
      - 0.0465116279069767 sold_next(63) - 0.0125786163522013 sold_next(64)
      - 0.00497512437810945 sold_next(65) - 0.00561797752808989 sold_next(66)
      - 0.00234466588511137 sold_next(67) - 0.00600600600600601 sold_next(68)
      - 0.000468603561387067 sold_next(69) - 0.000200280392549569 sold_next(70)
      - 0.000292269472453602 sold_next(71)
      + [ 0.0102040816326531 sold_next(1) ^2
      + 0.0000597211024515513 sold_next(2) ^2
      + 0.000085437224998932 sold_next(3) ^2
      + 0.00000890170734746924 sold_next(4) ^2 + 0.0003125 sold_next(5) ^2
      + 9.07316486734466e-8 sold_next(6) ^2
      + 0.00000733988050674535 sold_next(7) ^2
      + 0.000005668355836706 sold_next(8) ^2
      + 3.11098481895406e-8 sold_next(9) ^2
      + 0.00000392313788260402 sold_next(10) ^2
      + 0.00000418864834412259 sold_next(11) ^2
      + 2.52390612331174e-7 sold_next(12) ^2
      + 5.09637110347392e-7 sold_next(13) ^2
      + 0.0000359092214880781 sold_next(14) ^2
      + 2.56977966863308e-8 sold_next(15) ^2
      + 2.40669670095792e-8 sold_next(16) ^2
      + 1.16011366793718e-8 sold_next(17) ^2
      + 0.0000137778053333884 sold_next(18) ^2
      + 4.62775753031019e-8 sold_next(19) ^2 + 0.001953125 sold_next(20) ^2
      + 0.00173010380622837 sold_next(21) ^2
      + 0.00617283950617284 sold_next(22) ^2
      + 0.0000877154510767072 sold_next(23) ^2
      + 2.18194173526073e-8 sold_next(24) ^2
      + 2.38462027867247e-10 sold_next(25) ^2
      + 0.00000349934212368075 sold_next(26) ^2
      + 1.59923890301519e-8 sold_next(27) ^2
      + 5.33250492655999e-10 sold_next(28) ^2
      + 9.53161069781833e-10 sold_next(29) ^2
      + 1.16779084129857e-9 sold_next(30) ^2
      + 2.48666649425779e-7 sold_next(31) ^2
      + 2.44613358230799e-9 sold_next(32) ^2
      + 3.82819196943326e-8 sold_next(33) ^2
      + 9.04847914347907e-10 sold_next(34) ^2
      + 9.17160718598908e-9 sold_next(35) ^2
      + 2.55008572368169e-8 sold_next(36) ^2
      + 3.33588812325253e-8 sold_next(37) ^2
      + 0.00000966066900132834 sold_next(38) ^2
      + 0.000162324486648811 sold_next(39) ^2
      + 6.76827883684421e-7 sold_next(40) ^2
      + 5.12219508597092e-7 sold_next(41) ^2
      + 5.65866908103214e-7 sold_next(42) ^2
      + 1.25482643184641e-9 sold_next(43) ^2
      + 0.00000611276835053059 sold_next(44) ^2
      + 0.00000521973791695919 sold_next(45) ^2
      + 0.00000109739368998628 sold_next(46) ^2
      + 0.000337325012649688 sold_next(47) ^2
      + 1.56486869773583e-7 sold_next(48) ^2
      + 0.00000121500113298856 sold_next(49) ^2
      + 2.07991802127914e-8 sold_next(50) ^2
      + 0.000337325012649688 sold_next(51) ^2
      + 1.18744988961466e-7 sold_next(52) ^2
      + 4.37946390544387e-7 sold_next(53) ^2
      + 7.12003235342701e-7 sold_next(54) ^2
      + 0.00131492439184747 sold_next(55) ^2
      + 0.000109739368998628 sold_next(56) ^2
      + 0.000252493372048984 sold_next(57) ^2
      + 0.000459136822773186 sold_next(58) ^2
      + 2.49193578431e-7 sold_next(59) ^2
      + 6.44928076008643e-7 sold_next(60) ^2
      + 2.8308707588602e-7 sold_next(61) ^2
      + 0.00000542815966388835 sold_next(62) ^2
      + 0.00108166576527853 sold_next(63) ^2
      + 0.0000791107946679324 sold_next(64) ^2
      + 0.0000123759312888295 sold_next(65) ^2
      + 0.0000157808357530615 sold_next(66) ^2
      + 0.00000274872905640255 sold_next(67) ^2
      + 0.0000180360540720901 sold_next(68) ^2
      + 1.09794648872321e-7 sold_next(69) ^2
      + 2.00561178199048e-8 sold_next(70) ^2
      + 4.27107222641535e-8 sold_next(71) ^2 ] / 2 + 71
Subject To
 c1:  sold_next(1) - Rgc1  = 0
 c2:  sold_next(2) - Rgc2  = 0
 c3:  sold_next(3) - Rgc3  = 0
 c4:  sold_next(4) - Rgc4  = 0
 c5:  sold_next(5) - Rgc5  = 0
 c6:  sold_next(6) - Rgc6  = 0
 c7:  sold_next(7) - Rgc7  = 0
 c8:  sold_next(8) - Rgc8  = 0
 c9:  sold_next(9) - Rgc9  = 0
 c10: sold_next(10) - Rgc10  = 0
 c11: sold_next(11) - Rgc11  = 0
 c12: sold_next(12) - Rgc12  = 0
 c13: sold_next(13) - Rgc13  = 0
 c14: sold_next(14) - Rgc14  = 0
 c15: sold_next(15) - Rgc15  = 0
 c16: sold_next(16) - Rgc16  = 0
 c17: sold_next(17) - Rgc17  = 0
 c18: sold_next(18) - Rgc18  = 0
 c19: sold_next(19) - Rgc19  = 0
 c20: sold_next(20) - Rgc20  = 0
 c21: sold_next(21) - Rgc21  = 0
 c22: sold_next(22) - Rgc22  = 0
 c23: sold_next(23) - Rgc23  = 0
 c24: sold_next(24) - Rgc24  = 0
 c25: sold_next(25) - Rgc25  = 0
 c26: sold_next(26) - Rgc26  = 0
 c27: sold_next(27) - Rgc27  = 0
 c28: sold_next(28) - Rgc28  = 0
 c29: sold_next(29) - Rgc29  = 0
 c30: sold_next(30) - Rgc30  = 0
 c31: sold_next(31) - Rgc31  = 0
 c32: sold_next(32) - Rgc32  = 0
 c33: sold_next(33) - Rgc33  = 0
 c34: sold_next(34) - Rgc34  = 0
 c35: sold_next(35) - Rgc35  = 0
 c36: sold_next(36) - Rgc36  = 0
 c37: sold_next(37) - Rgc37  = 0
 c38: sold_next(38) - Rgc38  = 0
 c39: sold_next(39) - Rgc39  = 0
 c40: sold_next(40) - Rgc40  = 0
 c41: sold_next(41) - Rgc41  = 0
 c42: sold_next(42) - Rgc42  = 0
 c43: sold_next(43) - Rgc43  = 0
 c44: sold_next(44) - Rgc44  = 0
 c45: sold_next(45) - Rgc45  = 0
 c46: sold_next(46) - Rgc46  = 0
 c47: sold_next(47) - Rgc47  = 0
 c48: sold_next(48) - Rgc48  = 0
 c49: sold_next(49) - Rgc49  = 0
 c50: sold_next(50) - Rgc50  = 0
 c51: sold_next(51) - Rgc51  = 0
 c52: sold_next(52) - Rgc52  = 0
 c53: sold_next(53) - Rgc53  = 0
 c54: sold_next(54) - Rgc54  = 0
 c55: sold_next(55) - Rgc55  = 0
 c56: sold_next(56) - Rgc56  = 0
 c57: sold_next(57) - Rgc57  = 0
 c58: sold_next(58) - Rgc58  = 0
 c59: sold_next(59) - Rgc59  = 0
 c60: sold_next(60) - Rgc60  = 0
 c61: sold_next(61) - Rgc61  = 0
 c62: sold_next(62) - Rgc62  = 0
 c63: sold_next(63) - Rgc63  = 0
 c64: sold_next(64) - Rgc64  = 0
 c65: sold_next(65) - Rgc65  = 0
 c66: sold_next(66) - Rgc66  = 0
 c67: sold_next(67) - Rgc67  = 0
 c68: sold_next(68) - Rgc68  = 0
 c69: sold_next(69) - Rgc69  = 0
 c70: sold_next(70) - Rgc70  = 0
 c71: sold_next(71) - Rgc71  = 0
 c72: sold_next(1) + sold_next(2) + sold_next(3) + sold_next(4) + sold_next(5)
      + sold_next(6) + sold_next(7) + sold_next(8) + sold_next(9)
      + sold_next(10) + sold_next(11) + sold_next(12) + sold_next(13)
      + sold_next(14) + sold_next(15) + sold_next(16) + sold_next(17)
      + sold_next(18) + sold_next(19) + sold_next(20) + sold_next(21)
      + sold_next(22) + sold_next(23) + sold_next(24) + sold_next(25)
      + sold_next(26) + sold_next(27) + sold_next(28) + sold_next(29)
      + sold_next(30) + sold_next(31) + sold_next(32) + sold_next(33)
      + sold_next(34) + sold_next(35) + sold_next(36) + sold_next(37)
      + sold_next(38) + sold_next(39) + sold_next(40) + sold_next(41)
      + sold_next(42) + sold_next(43) + sold_next(44) + sold_next(45)
      + sold_next(46) + sold_next(47) + sold_next(48) + sold_next(49)
      + sold_next(50) + sold_next(51) + sold_next(52) + sold_next(53)
      + sold_next(54) + sold_next(55) + sold_next(56) + sold_next(57)
      + sold_next(58) + sold_next(59) + sold_next(60) + sold_next(61)
      + sold_next(62) + sold_next(63) + sold_next(64) + sold_next(65)
      + sold_next(66) + sold_next(67) + sold_next(68) + sold_next(69)
      + sold_next(70) + sold_next(71) >= 517500
 c73: sold_next(1) + sold_next(2) + sold_next(3) + sold_next(4) + sold_next(5)
      + sold_next(6) + sold_next(7) + sold_next(8) + sold_next(9)
      + sold_next(10) + sold_next(11) + sold_next(12) + sold_next(13)
      + sold_next(14) + sold_next(15) + sold_next(16) + sold_next(17)
      + sold_next(18) + sold_next(19) + sold_next(20) + sold_next(21)
      + sold_next(22) + sold_next(23) + sold_next(24) + sold_next(25)
      + sold_next(26) + sold_next(27) + sold_next(28) + sold_next(29)
      + sold_next(30) + sold_next(31) + sold_next(32) + sold_next(33)
      + sold_next(34) + sold_next(35) + sold_next(36) + sold_next(37)
      + sold_next(38) + sold_next(39) + sold_next(40) + sold_next(41)
      + sold_next(42) + sold_next(43) + sold_next(44) + sold_next(45)
      + sold_next(46) + sold_next(47) + sold_next(48) + sold_next(49)
      + sold_next(50) + sold_next(51) + sold_next(52) + sold_next(53)
      + sold_next(54) + sold_next(55) + sold_next(56) + sold_next(57)
      + sold_next(58) + sold_next(59) + sold_next(60) + sold_next(61)
      + sold_next(62) + sold_next(63) + sold_next(64) + sold_next(65)
      + sold_next(66) + sold_next(67) + sold_next(68) + sold_next(69)
      + sold_next(70) + sold_next(71) <= 632500
 c74: 300 sold_next(1) + 300 sold_next(2) + 1000 sold_next(3)
      + 260 sold_next(4) + 980 sold_next(5) + 240 sold_next(6)
      + 500 sold_next(7) + 350 sold_next(8) + 160 sold_next(9)
      + 310 sold_next(10) + 230 sold_next(11) + 220 sold_next(12)
      + 360 sold_next(13) + 1000 sold_next(14) + 160 sold_next(15)
      + 280 sold_next(16) + 220 sold_next(17) + 1000 sold_next(18)
      + 530 sold_next(19) + 400 sold_next(20) + 300 sold_next(21)
      + 300 sold_next(22) + 650 sold_next(23) + 120 sold_next(24)
      + 100 sold_next(25) + 200 sold_next(26) + 220 sold_next(27)
      + 110 sold_next(28) + 110 sold_next(29) + 160 sold_next(30)
      + 420 sold_next(31) + 220 sold_next(32) + 190 sold_next(33)
      + 100 sold_next(34) + 150 sold_next(35) + 140 sold_next(36)
      + 200 sold_next(37) + 300 sold_next(38) + 400 sold_next(39)
      + 200 sold_next(40) + 260 sold_next(41) + 260 sold_next(42)
      + 230 sold_next(43) + 200 sold_next(44) + 200 sold_next(45)
      + 230 sold_next(46) + 1000 sold_next(47) + 250 sold_next(48)
      + 260 sold_next(49) + 220 sold_next(50) + 1000 sold_next(51)
      + 480 sold_next(52) + 200 sold_next(53) + 250 sold_next(54)
      + 500 sold_next(55) + 1000 sold_next(56) + 500 sold_next(57)
      + 400 sold_next(58) + 150 sold_next(59) + 130 sold_next(60)
      + 160 sold_next(61) + 1000 sold_next(62) + 500 sold_next(63)
      + 260 sold_next(64) + 300 sold_next(65) + 350 sold_next(66)
      + 400 sold_next(67) + 1000 sold_next(68) + 150 sold_next(69)
      + 190 sold_next(70) + 140 sold_next(71) >= 73600000
 c75: 300 sold_next(1) + 300 sold_next(2) + 1000 sold_next(3)
      + 260 sold_next(4) + 980 sold_next(5) + 240 sold_next(6)
      + 500 sold_next(7) + 350 sold_next(8) + 160 sold_next(9)
      + 310 sold_next(10) + 230 sold_next(11) + 220 sold_next(12)
      + 360 sold_next(13) + 1000 sold_next(14) + 160 sold_next(15)
      + 280 sold_next(16) + 220 sold_next(17) + 1000 sold_next(18)
      + 530 sold_next(19) + 400 sold_next(20) + 300 sold_next(21)
      + 300 sold_next(22) + 650 sold_next(23) + 120 sold_next(24)
      + 100 sold_next(25) + 200 sold_next(26) + 220 sold_next(27)
      + 110 sold_next(28) + 110 sold_next(29) + 160 sold_next(30)
      + 420 sold_next(31) + 220 sold_next(32) + 190 sold_next(33)
      + 100 sold_next(34) + 150 sold_next(35) + 140 sold_next(36)
      + 200 sold_next(37) + 300 sold_next(38) + 400 sold_next(39)
      + 200 sold_next(40) + 260 sold_next(41) + 260 sold_next(42)
      + 230 sold_next(43) + 200 sold_next(44) + 200 sold_next(45)
      + 230 sold_next(46) + 1000 sold_next(47) + 250 sold_next(48)
      + 260 sold_next(49) + 220 sold_next(50) + 1000 sold_next(51)
      + 480 sold_next(52) + 200 sold_next(53) + 250 sold_next(54)
      + 500 sold_next(55) + 1000 sold_next(56) + 500 sold_next(57)
      + 400 sold_next(58) + 150 sold_next(59) + 130 sold_next(60)
      + 160 sold_next(61) + 1000 sold_next(62) + 500 sold_next(63)
      + 260 sold_next(64) + 300 sold_next(65) + 350 sold_next(66)
      + 400 sold_next(67) + 1000 sold_next(68) + 150 sold_next(69)
      + 190 sold_next(70) + 140 sold_next(71) <= 110400000
Bounds
      sold_next(1) Free
      sold_next(2) Free
      sold_next(3) Free
      sold_next(4) Free
      sold_next(5) Free
      sold_next(6) Free
      sold_next(7) Free
      sold_next(8) Free
      sold_next(9) Free
      sold_next(10) Free
      sold_next(11) Free
      sold_next(12) Free
      sold_next(13) Free
      sold_next(14) Free
      sold_next(15) Free
      sold_next(16) Free
      sold_next(17) Free
      sold_next(18) Free
      sold_next(19) Free
      sold_next(20) Free
      sold_next(21) Free
      sold_next(22) Free
      sold_next(23) Free
      sold_next(24) Free
      sold_next(25) Free
      sold_next(26) Free
      sold_next(27) Free
      sold_next(28) Free
      sold_next(29) Free
      sold_next(30) Free
      sold_next(31) Free
      sold_next(32) Free
      sold_next(33) Free
      sold_next(34) Free
      sold_next(35) Free
      sold_next(36) Free
      sold_next(37) Free
      sold_next(38) Free
      sold_next(39) Free
      sold_next(40) Free
      sold_next(41) Free
      sold_next(42) Free
      sold_next(43) Free
      sold_next(44) Free
      sold_next(45) Free
      sold_next(46) Free
      sold_next(47) Free
      sold_next(48) Free
      sold_next(49) Free
      sold_next(50) Free
      sold_next(51) Free
      sold_next(52) Free
      sold_next(53) Free
      sold_next(54) Free
      sold_next(55) Free
      sold_next(56) Free
      sold_next(57) Free
      sold_next(58) Free
      sold_next(59) Free
      sold_next(60) Free
      sold_next(61) Free
      sold_next(62) Free
      sold_next(63) Free
      sold_next(64) Free
      sold_next(65) Free
      sold_next(66) Free
      sold_next(67) Free
      sold_next(68) Free
      sold_next(69) Free
      sold_next(70) Free
      sold_next(71) Free
 0 <= Rgc1 <= 42
 0 <= Rgc2 <= 243
 0 <= Rgc3 <= 186
 0 <= Rgc4 <= 580
 0 <= Rgc5 <= 122
 0 <= Rgc6 <= 5643
 0 <= Rgc7 <= 657
 0 <= Rgc8 <= 728
 0 <= Rgc9 <= 9654
 0 <= Rgc10 <= 870
 0 <= Rgc11 <= 831
 0 <= Rgc12 <= 3397
 0 <= Rgc13 <= 2386
 0 <= Rgc14 <= 287
 0 <= Rgc15 <= 10594
 0 <= Rgc16 <= 10960
 0 <= Rgc17 <= 15784
 0 <= Rgc18 <= 484
 0 <= Rgc19 <= 7908
 0 <= Rgc20 <= 63
 0 <= Rgc21 <= 74
 0 <= Rgc22 <= 33
 0 <= Rgc23 <= 185
 0 <= Rgc24 <= 11527
 0 <= Rgc25 <= 109934
 0 <= Rgc26 <= 947
 0 <= Rgc27 <= 13421
 0 <= Rgc28 <= 73492
 0 <= Rgc29 <= 54998
 0 <= Rgc30 <= 49701
 0 <= Rgc31 <= 3428
 0 <= Rgc32 <= 34316
 0 <= Rgc33 <= 8680
 0 <= Rgc34 <= 56454
 0 <= Rgc35 <= 17731
 0 <= Rgc36 <= 10662
 0 <= Rgc37 <= 9293
 0 <= Rgc38 <= 580
 0 <= Rgc39 <= 141
 0 <= Rgc40 <= 2065
 0 <= Rgc41 <= 2388
 0 <= Rgc42 <= 2279
 0 <= Rgc43 <= 47922
 0 <= Rgc44 <= 707
 0 <= Rgc45 <= 765
 0 <= Rgc46 <= 1636
 0 <= Rgc47 <= 116
 0 <= Rgc48 <= 4328
 0 <= Rgc49 <= 1571
 0 <= Rgc50 <= 11795
 0 <= Rgc51 <= 98
 0 <= Rgc52 <= 4955
 0 <= Rgc53 <= 2581
 0 <= Rgc54 <= 2024
 0 <= Rgc55 <= 70
 0 <= Rgc56 <= 180
 0 <= Rgc57 <= 115
 0 <= Rgc58 <= 97
 0 <= Rgc59 <= 3420
 0 <= Rgc60 <= 2142
 0 <= Rgc61 <= 3215
 0 <= Rgc62 <= 739
 0 <= Rgc63 <= 65
 0 <= Rgc64 <= 226
 0 <= Rgc65 <= 492
 0 <= Rgc66 <= 442
 0 <= Rgc67 <= 1032
 0 <= Rgc68 <= 428
 0 <= Rgc69 <= 5132
 0 <= Rgc70 <= 11994
 0 <= Rgc71 <= 8232
Generals
 sold_next(1)  sold_next(2)  sold_next(3)  sold_next(4)  sold_next(5) 
 sold_next(6)  sold_next(7)  sold_next(8)  sold_next(9)  sold_next(10) 
 sold_next(11)  sold_next(12)  sold_next(13)  sold_next(14)  sold_next(15) 
 sold_next(16)  sold_next(17)  sold_next(18)  sold_next(19)  sold_next(20) 
 sold_next(21)  sold_next(22)  sold_next(23)  sold_next(24)  sold_next(25) 
 sold_next(26)  sold_next(27)  sold_next(28)  sold_next(29)  sold_next(30) 
 sold_next(31)  sold_next(32)  sold_next(33)  sold_next(34)  sold_next(35) 
 sold_next(36)  sold_next(37)  sold_next(38)  sold_next(39)  sold_next(40) 
 sold_next(41)  sold_next(42)  sold_next(43)  sold_next(44)  sold_next(45) 
 sold_next(46)  sold_next(47)  sold_next(48)  sold_next(49)  sold_next(50) 
 sold_next(51)  sold_next(52)  sold_next(53)  sold_next(54)  sold_next(55) 
 sold_next(56)  sold_next(57)  sold_next(58)  sold_next(59)  sold_next(60) 
 sold_next(61)  sold_next(62)  sold_next(63)  sold_next(64)  sold_next(65) 
 sold_next(66)  sold_next(67)  sold_next(68)  sold_next(69)  sold_next(70) 
 sold_next(71) 
End
